
 102   30
  10   10   10   10   10   10   10   10   10   10   10   10   10   10   10   10   10   10   10   10   10   10   10   10   10   10   10   10   10   10

   0   0   0   0   0   0   0   0   0   0   0   0   0   0   0   0   0   0   0   0   0   0   0   0   0   0   0   0   0   0   0  28 2 3 4 5 6 7 8 9 10 12 13 14 15 16 17 18 19 21 22 25 26 28 29 30 33 34 40 43 
  10   0   1   0   0   0   0   0   0   0   0   0   0   0   0   0   4   0   0   0   0   0   0   1   0   0   0   1   0   0   0  17 101 77 64 59 57 52 47 45 44 38 36 35 32 31 24 23 20 
   3   0   0   0   0   2   0   0   0   0   0   0   0   0   4   0   0   0   0   0   1   0   0   0   0   0   1   0   0   0   0  11 64 63 59 55 54 49 47 39 37 27 11 
   7   0   0   0   0   0   0   2   0   0   0   1   0   0   0   0   0   0   0   0   0   0   0   0   0   0   0   0   0   0   0  23 101 100 96 94 77 76 67 64 62 61 59 58 57 56 55 54 52 46 45 42 39 36 32 
   5   0   0   0   0   5   0   0   0   0   0   0   0   0   0   0   0   0   0   0   0   0   0   0   0   0   0   0   0   1   0  12 101 99 98 63 60 59 56 53 52 46 27 23 
   5   4   0   1   0   0   1   0   0   0   0   0   0   0   0   0   5   0   0   0   0   0   0   0   0   0   0   0   0   0   0  21 101 98 77 76 74 70 67 66 64 63 62 61 58 57 55 54 52 47 42 39 38 
   6   4   0   0   0   0   0   0   0   0   0   4   0   0   0   0   0   0   0   0   0   0   0   0   1   0   7   0   0   0   0  19 101 99 98 96 94 74 72 63 61 59 55 53 52 51 50 46 44 42 41 
   7   0   7   0   0   6   0   0   0   0   0   4   0   0   3   0   7   0   3   0   0   0   0   0   0   0   0   0   0   0   0  16 101 98 96 75 74 72 62 60 58 57 56 53 48 44 42 35 
   1   0   0   0   0   0   0   0   0   2   0   0   0   0   0   0   0   0   0   0   0   0   0   0   7   0   0   0   0   0   0  13 101 100 94 75 64 59 57 52 47 45 37 36 31 
   8   0   0   0   0   0   0   0   1   0   0   0   0   2   0   0   0   0   0   0   0   0   0   0   0   0   0   0   0   0   0  10 99 77 65 63 59 52 51 50 31 23 
   9   0   0   7   0   0   0   0   4   0   0   0   0   0   0   0   0   1   0   0   0   0   0   0   0   5   0   0   0   0   0  16 101 100 98 96 95 94 93 92 68 66 61 56 51 44 42 32 
   2   0  10   0   1   3   0   0   0   5   0   5   3   0   0   0   0   0   5   1   0   0   0   0   0   0   0   0   0   0   0  21 101 100 97 96 94 93 89 86 77 76 75 73 72 71 69 68 59 58 53 51 46 
   3   0   6   0   0   0   0   0   0   0   0   0   9   0   0   0   0   0   0   0   0   0   0   0   0   0   0   0   0   0   1  16 98 97 96 76 75 74 71 68 67 66 61 59 56 51 45 39 
   7   5   0   0   0   0   0   0   0   0   0   0   0   6   4   0   6   0   0   0   0   1   0   0   0   0   0   1   0   0   0  17 98 97 94 93 92 91 76 73 69 66 65 63 60 59 58 51 37 
   7   0   6   0   0   0   0   0   0   0   0   0   5   0  10   0   0   0   0   0   0   0   1   0   0   0   0   0   0   7   0  16 99 96 94 93 90 88 77 76 74 70 61 59 56 50 45 41 
   3   0   6   0   0   0   0   0   0   0   0   0   0   0   0   0   0   0   0   0   0   8   0   5   0   0   0   9   0   0   0  14 94 93 74 71 70 69 66 64 61 59 50 45 42 41 
   2   0   7   0   0   0   0   0   0   0   1   0   0   0   0   0   0   5   0   0   0   0   6   0   7   0   0   0   0   0   0  17 98 97 96 95 92 76 75 70 67 65 61 56 54 50 49 46 42 
   4   7   7   0   0   0   0   0   0   0   0   0   2   0   0   0   0   0   0   0   8   0   0   0   0   1   0   0   1   0   0  17 100 99 96 94 89 86 74 72 70 67 66 63 62 61 57 53 52 
   5   0   0   0   0   0   0   4   0   0   0   0   0   0   0   0   0   0   0   0   0   0   0   0   9   0   0   8   0   0   0  17 98 97 96 94 92 76 73 72 71 70 65 61 60 56 55 50 46 
   7   0   0   0   2   0   0   0   0   0   0   0   0   0   0   3   4   0   0   0   0   0   0   0   0   0   6   0   5   0   0  14 100 99 98 96 95 90 75 74 70 69 62 61 55 39 
  10   0   6   0   0   0   0   0   0   0   0   0   0   0   0   0   0   0   4   0   0   0   0   0   0   0   0   0   0   0   0  16 95 94 93 90 88 85 74 73 70 69 67 62 58 55 50 45 
   9   0   0   3   0   0   4   0   0   4   0   0   0   0   0   0   0   0   0   0   0   0   0   0   7   0   9   0   0   0   0  15 99 97 92 76 75 74 72 71 70 69 66 62 61 50 42 
   8   0   0   0   0   0   0   0   0  10   0   0   0   0   0   0   0   0   0   9   5   5   0   0   0   0   0   0   0   0   0  13 97 96 94 93 92 80 76 74 72 69 66 42 41 
   2   0   0   0   0   0   0   0   6   5   0   0   0   0   0   0   0   0   0   0   0   0   0   0   0   0   0   5  10   0   0  18 99 98 96 95 94 92 91 90 85 79 73 72 71 61 60 58 56 51 
   2   0   0   0   0   0   0   0   6   0   0   0   0   2   0   0   0   0   0   0   0   0   0   8   0   6   0   0   0   0   0  12 95 93 88 76 74 71 70 69 66 61 50 45 
  10   0   0   0   0   0   5   0   0   0   0   5   0   0   0   0   0   0   0   0   0   0   6   0   0   0   0   0   0   0   0  18 97 95 94 93 92 89 88 87 86 83 75 74 71 68 67 66 65 56 
   6   0   0   0   0   0   0   0   0   5   0   0   0   0   0   0   0   0   0   5   0   0   0   0   6   0   0   0   0   0   0  16 100 92 88 87 86 77 71 70 69 67 66 65 62 61 58 50 
   5   0   0   0   0   0   0  10   0   0   0   0   0   0   0   0   3   8   0   0   0   0   0   0   0   0   0   0   0   0   0  14 98 97 95 92 88 86 74 71 67 66 63 61 58 55 
   7   0   0   0   9   0   0   0   0   0   0   0   0   0   0   0   0   0   0   0   0   0   0   0   0   0   0   0   0   0   0  13 97 94 93 92 87 86 70 69 66 65 62 57 50 
   6   0   0   0   0   0   0   0   0   0   0   0   0   0   0   6   8   0   0   0   0   5   0   8   0   0   0   0   0   0   0  10 96 90 88 73 71 69 68 65 61 41 
   9   5   0   0   0   0   0   0   0   0   0   0   0   0   0   0  10   0   5   0   0   0   5   0   0   0   4   0   0   0   0  17 98 95 92 91 90 89 88 87 86 85 84 74 73 72 71 70 56 
   5   0   0   0   0   0   8   0   0   0   5   0   0   0   0   9   0   0   0   0   0   0   0   4   0   0   0   0   0   0   7  13 99 91 90 89 87 85 75 74 73 72 70 69 60 
   7   0   0   0   0   0   6   0   0   0   0   0   0   0   0   0   0   0   0   0   0   0   0   0   0   0   0   0   8   0   0  12 97 93 89 88 87 86 68 67 66 65 61 58 
  10   0   0   0   0   0   0   2   0   0   0   0   0   0   0   0   0   0   0   0   0   0   0   0   0   0   0   0   0   0   0  13 100 97 94 90 88 86 82 81 77 75 65 61 55 
   7   0   0   0   0   0   0   6   7   0   0   0   0   0   0   0   0   0   0   0   0   0   4   0   0   0   0   5   0   0   0  11 99 97 94 90 86 85 79 70 67 61 50 
   1  10   0   0   0   9   0   0   0   0   0   0   0   0   0   0   0   0   0   0   0   0   0   0   0   0   0   0   0   0   0   9 98 92 91 88 79 72 68 66 51 
   5   0   0   0   0   0   0   0   8   0   0   0   0   0   0   0   0   0   0   0   0   0   8   0   0   0   8   0   0   6   0   9 96 86 85 82 79 71 70 61 50 
   3   0   0   0   7   0   0   0   0   6   0   0   0   6   0   7   0   0   0   0   0   0   0   6   0   0  10   0   0   0   0  14 95 94 93 91 90 89 88 85 83 82 81 79 78 71 
   1   8   0   0   6   4   0   0   0   0   8   0   0   0   0   0   0   0   0   0   0   0   0   0   0   0   0   0   0   0   0  10 93 92 89 88 86 85 80 73 72 65 
   4   0   0   0   0  10   9   8   4   7   0   0   0   6   0   0   0   0  10   5   7   0   0   0   0   0   0   0   6   0   0  10 89 88 87 86 85 84 81 70 65 61 
  10   0   0   0   3   0   7   0   0   3   0   0   0   0   0   0   0   0   0   0   8   0   0   0   0   4   0   0   0   0   0   9 89 87 86 85 83 79 75 67 58 
   6   0   6   0   0   4   0   0   0   7   0   0   0   0   0   0   0   0   0   0   0   0   7   0   0   0   0   0   0   0   0  11 91 90 88 87 86 85 83 81 79 78 73 
  10   0   0  10   8   0   0   0   0   0   0   0   0   5   0   4   0   0   6   0   0   0   0   0   0   0   0   0   0   0   0  11 100 94 93 91 90 86 83 81 79 78 73 
   8   0   0   0   4   0   0   0   0   0   0   0   0   3   0   0   0   7   3   0   0   0   8   0   0   0   0   0   0   0   0   9 89 88 87 86 85 81 76 67 65 
   3   0   0   0   0   0   0   0   0   0   0   0   0   0   0   0   0   0   0   0   0   0   6   0   0   0   0   0   0   6   0   8 92 91 87 86 82 80 72 65 
  10   0   9   0   7   0   0   7   0   0   0   0   0   0   0   0   0   0   0   0   0   0   0   0   0   8   0   0   0  10   0   8 91 88 87 82 81 80 78 66 
   2   0   3  10   0   5   0   0   0   0   0   0   0   0   0   0   0   0   0   0   0   0   8   0   0   0   0   0   0   0   0   8 96 87 85 83 81 79 71 69 
   3   0   3   0   0   0   0   0   0  10   0   0   0   0   0   0   0   0   0   0   0   7   0   0   0   0   0   0   0   0   0   8 93 88 86 84 82 80 76 69 
   2   0   0   0   0   3   0   0   0   0   0   0   0   6   0   6   0   9   8   0   0   0   3   3   0   0   0   0   6   0   0   9 94 90 86 84 83 82 81 79 78 
   3   0   0   0   0   0   0   6   0   0   0   0   0   0   0   0   0   0   0   0   4   0   0   0   0   0   0   5   9   0   0   6 89 83 81 80 78 68 
   2   0   0   0   0   0   0   0   0   0   0  10   4   0   0   0   0   0   0   0   4   0   8   0   0   0   0   0   0   6   0   6 87 82 81 80 78 70 
   1   0   0   0   0   0   0   0   0   0   0   9   6   0   0   0   0   0   4   0   0   0   0   0   0   8   0   0   0   0   0   5 97 93 85 69 68 
   4   0   0   0   0   0   0   0   0   0   0   4   0   0   0   0   0   0   3   0   0   0   0   0   0   0   0   0   0   0   0   5 95 92 85 80 65 
   2   0   0   0   0   4   0   0   0   0   0   0   0   0   0  10   0   0   0   0   0   0   0   0   5   0   0   0   0   0   0   6 89 87 86 84 83 79 
   6   0   6   0   0   0   0   0   0   0   0   0   0   7   0   0   0   0   0   0   0   0   0   0   0   0   0   0   3   0   0   5 89 87 83 78 68 
   1   0   0   0   7   0   0   8   0   0   0   7   0   0   0   0   0   0   0   0   0   0   0   0   0   0  10   0   6   0   0   4 82 81 80 69 
   9   0   0   0  10   0   0   0   0   0   0   0   0   8   0   0   0   0  10   0   0   0   0   0   2   0   0   0   0   0   0   4 88 84 79 71 
   4   0   0   0   0   0   0   4   0   0   0   0   0   0   0   0   0  10   0   0   0   0   0   0   0   0   4   0   0   0   0   4 84 82 81 78 
   7   0   0   0   0   5   0   0   0   0   0   0   0   7   0   0   0   0   0   0   0   0   0   0   0   0   0   0   0   0   0   4 95 87 82 80 
   6   0   0   0   0   0   0   6   0   0   0   0   0   0   0   4   0   0   0   0   4   4   0   0   5   0   0   0   0   0   5   4 88 86 84 80 
   4   0   0   0   0   0   0   0   0   0   0   0   0   0   0   0   0   0   7   0   0   0   0   0   0   0   0   0   0   0   0   3 83 80 78 
   3   0   0   0   0   0   0   0   0   0  10   0   0   0   7   0   0   0   6   0   0   0   0   0   0   0   0   0   0   0   0   3 84 82 78 
   7   0   0   0   0   0   0   0   0   0   0   9  10   0   0   0   0   0   0   0   7  10   0   0   0   0   0   0   0   0   0   3 85 80 78 
   1   0   0   0   0   0   5   0   0   0   0   0   0   0   0   0   0   0   0   0   6   0   6   0   0   0   2   0   0   0   0   3 89 79 78 
   3   0   8   0   0   0   0   0   0   4   0   0   0   0   0   0   0   7   0   8   0   0   0   0   0   6   0   0   0   0   0   2 79 78 
  10   0   0   6   0   0   0   0   0   0   0   0  10   7   0   0   0   0   6   0   0   0   0   0   0   0   0   0   0   4   0   2 90 85 
   1   0   0   0   0   0   0   0   0   0   0   0   0   0   0   0   0   0   0   0   0   0   0   0   0   0   0   0   8   0   0   2 91 78 
   7   0   0   0   0   0   0   0   0   0   0   0   0   0   0   0   0   0   0   0   0   0   0   8   5   0   0   8   0   6   0   1 84 
   4   0   0  10   0   0   0   0   0   0   0   0   0   0   5   0   0   0   0   0   0   0   0   0   0   0   0   0   4   0   0   1 78 
   2   0   0   5   0   0   0   0   0   9   0   6   5   0   0   0   6   0   0   0   0   0   0   0   8   4   0   0   5   0   0   1 83 
   5   5   0   0   0   0   0   0   7   0   0   6   0   0   0   5   0   0   0   0   6  10   0   0   0   0   3   6   0   0   0   1 80 
   6   0   0   0   0   0   0   0   0   0   0   0   0   0   0   0   0   0   0   0   9   0   0   0   0   0   0   0   0   5   0   1 81 
   1   0   0   0   0   0   0   0   0   0   0   0   0   0   0   0   0   0   0   8   8   9   0   0   9  10   0   0   0   0   0   1 82 
   6   0   7   0   0   0   0   0   0   0   0   0   0   0   4   0   0   0   0   0   0   0   0   0   0   0   0   0   0   0   0   1 79 
   6   0   0   0   0   0   0   0   0   0   0   0   0   0   0   0   0   0   0   0   0   4   0   4   0   0   0   0   9   0   6   1 78 
   5   0   6   0   0   0   6   0   0   7   0   7   0   0   7   0   0   0   0   0   0   0   0   0   0   0   0   0   0   0   9   1 79 
   4   0   0   4   0   6   0   0   0   0   5   0   0   0   0   0   0   0   0   0   0   3   0   0   6   0   0   0   6   0   0   1 78 
   3   0   0   0   0  10   0   0   0   0   0   0   0  10   0   0   0   0   0   0   0   0   0   8   5   0   0   0   0   0   0   1 102
   8   0   0   0   0   9   0   0   0   0   0   0   0   0   0   0   0   0   0   0   0   0   0   0   0   5   6   0   4   9   0   1 102
   4   0   0   0   0   0   0   0   0   0   0   0   0   0   0   6   0   0   0   0   0   0   0  10   0   0   2   8   0   0   8   1 102
  10   0   4   0   0   0   9   0   0   0   0   0   0   6   0   0   0   0   0   5   0   0   0   0   0   0   0   0   0   0   0   1 102
   4   6   0   0   0   0   0   0   0   0   0   0   0   0   0   0   7   0   0   0   0   0   0   0   0   0   0   0   0   0   0   1 102
   1   0   0   0   0   0   0   0   0   0   0   0   0   5   0   0   0   0   0   0   0   6   0   9   0   0   8   0   0   0   0   1 102
   3   0   0   0   0   0   0   0   8   0   0   0   0   0   0   0   0   0   0   0   0   0   0   0   0   0   0   9   0   0   0   1 102
   6   5   0   0   0   0   3   0   0   0   0   0   0   0   0   0   0   0   0   0   0   0   0   3   8   0   0   0   0   0   0   1 102
   3   0   0   0   0   0   0   0   0   0   0   0   0  10   0   0   0   0   0   0   5   0   0   0   0   0   0   7   0   0   0   1 102
   1   7   0   0   0   0   0   0   0   0   8   7   0   7   0   0   0   0   9   9   0   0   0   0   0   0   0   0   0   0   0   1 102
   4   0   0   0   0   0   0   5   0   0   0   0   0   0   0   0   0   0   0   0   0   0   6   0   0   0   0   0   0   0   0   1 102
   1   0   0   0   0   0   0   0   6   0   0   0   0   0   0   0   0   0   0   0   0   0   0   0   0   0   0   0   0   0   0   1 102
   4   0   0   6   7   0   0  10   0   0   0   7   0   0   0   0   0   0   5   7   0   0   0   0   0  10   0   0   0   0   0   1 102
   8   0   0   0   0   8   0   0   0   0   0   0   0   0   0   0   0   5   0   0   0   0   0   7   0   0   0   0   0   8   0   1 102
   5   0   0   0   0   0   0   0   0   0   0   0   0   0   0   0   0   0   0   0   8   0   8   0   0   5   0   6   0   0   0   1 102
   5   0   0   0   0   0   0   0   0   0   0   5   0   0   0   0   0   4   0   0   0   0   0   0   0   0  10   0   0   0   0   1 102
   3   0   0   4   0   0   0   0   0   0   0   0   0   0   0   0   0   0   0   0   0   0   0   0   0   6   0   0   6   4   0   1 102
   4   0   0   0   0   0   8   0   0   0   0   0   0   0   0   0   0   0   0   0   0   0   0   0   0   0   0   0   0   0   0   1 102
   9   0   0   0   0   9   0   0   0   0   5   0   0   5   0   0   0   0   0   3   0   0   0   0   0   0   0   0   0   0   0   1 102
   1   0   0   0   0   0   0   0   0   0   0   0   0   0   0   0   0   0   7   0   0   0   0   0   0   0   0   0   0   0   0   1 102
   2   0   0   0   7   0   4   0   0   0   0   0   0   0   0   0   0   0   7   0   0   0   0   0   0   0   0   0   0   0   0   1 102
   9   0   0   0   0   0   0   0   0   0   0   0   8   0   0   0   0   0   0   0   0   0   0   0   0   0   0   0   6   0   0   1 102
   4   0   0   0   0   0   0   0   0   0   0   0   0   0  10   0   0   0   0   6   0   0   0   0   0   0   0   0   0   0   0   1 102
   8   0   0   0   0   0   9   0   9   0   0   0   4   0   6   0   0   4   0   0   0   0   0   0   0   0   0   0   0   0   0   1 102
   0   0   0   0   0   0   0   0   0   0   0   0   0   0   0   0   0   0   0   0   0   0   0   0   0   0   0   0   0   0   0   0 
